NAME: euc.tsp
TYPE: TSP
COMMENT: User-generated TSP file
DIMENSION: 60
EDGE_WEIGHT_TYPE: EUC_2D
NODE_COORD_SECTION
1 4.0 48.0
2 74.0 5.0
3 11.0 53.0
4 31.0 97.0
5 22.0 44.0
6 87.0 41.0
7 61.0 88.0
8 6.0 55.0
9 70.0 75.0
10 19.0 70.0
11 39.0 92.0
12 29.0 17.0
13 91.0 71.0
14 42.0 24.0
15 58.0 68.0
16 41.0 100.0
17 5.0 6.0
18 41.0 61.0
19 58.0 16.0
20 41.0 59.0
21 85.0 24.0
22 90.0 24.0
23 27.0 67.0
24 2.0 65.0
25 70.0 45.0
26 53.0 80.0
27 18.0 15.0
28 40.0 70.0
29 43.0 92.0
30 39.0 81.0
31 4.0 50.0
32 13.0 64.0
33 87.0 17.0
34 15.0 7.0
35 41.0 68.0
36 75.0 32.0
37 93.0 99.0
38 30.0 49.0
39 90.0 34.0
40 80.0 7.0
41 7.0 83.0
42 72.0 2.0
43 95.0 60.0
44 54.0 74.0
45 56.0 40.0
46 99.0 89.0
47 52.0 72.0
48 79.0 68.0
49 92.0 59.0
50 58.0 15.0
51 46.0 58.0
52 43.0 82.0
53 44.0 48.0
54 98.0 60.0
55 10.0 65.0
56 53.0 28.0
57 64.0 73.0
58 26.0 31.0
59 25.0 20.0
60 75.0 83.0
EOF

